(set-logic QF_LIA)
(declare-fun x0 () Int)
(declare-fun x1 () Int)
(declare-fun x2 () Int)
(declare-fun x3 () Int)
(declare-fun x4 () Int)
(declare-fun x5 () Int)
(declare-fun x6 () Int)
(declare-fun x7 () Int)
(declare-fun x8 () Int)
(declare-fun x9 () Int)
(declare-fun A0 () Bool)
(declare-fun A1 () Bool)
(declare-fun A2 () Bool)
(declare-fun A3 () Bool)
(declare-fun A4 () Bool)
(declare-fun A5 () Bool)
(declare-fun A6 () Bool)
(declare-fun A7 () Bool)
(declare-fun A8 () Bool)
(declare-fun A9 () Bool)
(assert (let ((.def_0 (not A2))) (let ((.def_1 (and .def_0 .def_0))) (let ((.def_2 (not A5))) (let ((.def_3 (or .def_2 A4))) (let ((.def_4 (not .def_3))) (let ((.def_5 (or .def_4 .def_1))) (let ((.def_6 (not .def_5))) (let ((.def_7 (* 1 x1))) (let ((.def_8 (* 1 x2))) (let ((.def_9 (+ .def_8 .def_7))) (let ((.def_10 (< .def_9 (- 1)))) (let ((.def_11 (not .def_10))) (let ((.def_12 (< .def_7 (- 1)))) (let ((.def_13 (or .def_12 .def_11))) (let ((.def_14 (not .def_13))) (let ((.def_15 (* (- 1) x8))) (let ((.def_16 (* (- 1) x5))) (let ((.def_17 (+ .def_16 .def_15))) (let ((.def_18 (< .def_17 (- 1)))) (let ((.def_19 (not A4))) (let ((.def_20 (= .def_19 .def_18))) (let ((.def_21 (and .def_20 .def_14))) (let ((.def_22 (not .def_21))) (let ((.def_23 (or .def_22 .def_6))) (let ((.def_24 (not .def_23))) (let ((.def_25 (* (- 1) x2))) (let ((.def_26 (< .def_25 (- 1)))) (let ((.def_27 (* 1 x7))) (let ((.def_28 (< .def_27 (- 1)))) (let ((.def_29 (or .def_28 .def_26))) (let ((.def_30 (* 1 x5))) (let ((.def_31 (< .def_30 1))) (let ((.def_32 (* (- 1) x3))) (let ((.def_33 (* (- 1) x7))) (let ((.def_34 (+ .def_33 .def_32))) (let ((.def_35 (< .def_34 1))) (let ((.def_36 (and .def_35 .def_31))) (let ((.def_37 (and .def_36 .def_29))) (let ((.def_38 (not .def_37))) (let ((.def_39 (< .def_27 1))) (let ((.def_40 (< .def_32 (- 1)))) (let ((.def_41 (not .def_40))) (let ((.def_42 (and .def_41 .def_39))) (let ((.def_43 (not .def_42))) (let ((.def_44 (* (- 1) x9))) (let ((.def_45 (< .def_44 1))) (let ((.def_46 (not .def_45))) (let ((.def_47 (and .def_46 A2))) (let ((.def_48 (or .def_47 .def_43))) (let ((.def_49 (or .def_48 .def_38))) (let ((.def_50 (not .def_49))) (let ((.def_51 (and .def_50 .def_24))) (let ((.def_52 (not .def_51))) (let ((.def_53 (* (- 1) x4))) (let ((.def_54 (* (- 1) x0))) (let ((.def_55 (+ .def_54 .def_53))) (let ((.def_56 (< .def_55 1))) (let ((.def_57 (not .def_56))) (let ((.def_58 (+ .def_27 .def_25))) (let ((.def_59 (< .def_58 1))) (let ((.def_60 (or .def_59 .def_57))) (let ((.def_61 (not .def_60))) (let ((.def_62 (* (- 1) x1))) (let ((.def_63 (+ .def_8 .def_62))) (let ((.def_64 (< .def_63 1))) (let ((.def_65 (< .def_62 1))) (let ((.def_66 (not .def_65))) (let ((.def_67 (or .def_66 .def_64))) (let ((.def_68 (= .def_67 .def_61))) (let ((.def_69 (not .def_68))) (let ((.def_70 (not A6))) (let ((.def_71 (not .def_26))) (let ((.def_72 (and .def_71 .def_70))) (let ((.def_73 (not .def_72))) (let ((.def_74 (* 1 x6))) (let ((.def_75 (+ .def_74 .def_33))) (let ((.def_76 (< .def_75 1))) (let ((.def_77 (not .def_76))) (let ((.def_78 (* 1 x9))) (let ((.def_79 (< .def_78 1))) (let ((.def_80 (not .def_79))) (let ((.def_81 (and .def_80 .def_77))) (let ((.def_82 (not .def_81))) (let ((.def_83 (and .def_82 .def_73))) (let ((.def_84 (or .def_83 .def_69))) (let ((.def_85 (+ .def_53 .def_62))) (let ((.def_86 (< .def_85 1))) (let ((.def_87 (not .def_86))) (let ((.def_88 (or A9 .def_87))) (let ((.def_89 (< .def_53 (- 1)))) (let ((.def_90 (and A4 .def_89))) (let ((.def_91 (or .def_90 .def_88))) (let ((.def_92 (* 1 x3))) (let ((.def_93 (* 1 x0))) (let ((.def_94 (+ .def_93 .def_92))) (let ((.def_95 (< .def_94 1))) (let ((.def_96 (not .def_95))) (let ((.def_97 (< .def_92 (- 1)))) (let ((.def_98 (not .def_97))) (let ((.def_99 (= .def_98 .def_96))) (let ((.def_100 (* (- 1) x6))) (let ((.def_101 (< .def_100 (- 1)))) (let ((.def_102 (not .def_101))) (let ((.def_103 (or .def_102 A8))) (let ((.def_104 (not .def_103))) (let ((.def_105 (and .def_104 .def_99))) (let ((.def_106 (not .def_105))) (let ((.def_107 (and .def_106 .def_91))) (let ((.def_108 (not .def_107))) (let ((.def_109 (and .def_108 .def_84))) (let ((.def_110 (and .def_109 .def_52))) (let ((.def_111 (< .def_30 (- 1)))) (let ((.def_112 (not .def_111))) (let ((.def_113 (* 1 x8))) (let ((.def_114 (+ .def_27 .def_113))) (let ((.def_115 (< .def_114 1))) (let ((.def_116 (and .def_115 .def_112))) (let ((.def_117 (+ .def_78 .def_53))) (let ((.def_118 (< .def_117 (- 1)))) (let ((.def_119 (not .def_118))) (let ((.def_120 (+ .def_113 .def_100))) (let ((.def_121 (< .def_120 (- 1)))) (let ((.def_122 (or .def_121 .def_119))) (let ((.def_123 (not .def_122))) (let ((.def_124 (or .def_123 .def_116))) (let ((.def_125 (not .def_124))) (let ((.def_126 (not A3))) (let ((.def_127 (< .def_16 1))) (let ((.def_128 (not .def_127))) (let ((.def_129 (or .def_128 .def_126))) (let ((.def_130 (< .def_15 1))) (let ((.def_131 (not .def_130))) (let ((.def_132 (or .def_131 A0))) (let ((.def_133 (not .def_132))) (let ((.def_134 (or .def_133 .def_129))) (let ((.def_135 (not .def_134))) (let ((.def_136 (and .def_135 .def_125))) (let ((.def_137 (+ .def_78 .def_92))) (let ((.def_138 (< .def_137 (- 1)))) (let ((.def_139 (+ .def_30 .def_15))) (let ((.def_140 (< .def_139 1))) (let ((.def_141 (not .def_140))) (let ((.def_142 (or .def_141 .def_138))) (let ((.def_143 (< .def_93 (- 1)))) (let ((.def_144 (or .def_143 A1))) (let ((.def_145 (not .def_144))) (let ((.def_146 (and .def_145 .def_142))) (let ((.def_147 (not .def_146))) (let ((.def_148 (not A0))) (let ((.def_149 (not A7))) (let ((.def_150 (and .def_149 .def_148))) (let ((.def_151 (not .def_150))) (let ((.def_152 (+ .def_93 .def_7))) (let ((.def_153 (< .def_152 1))) (let ((.def_154 (and A2 .def_153))) (let ((.def_155 (not .def_154))) (let ((.def_156 (= .def_155 .def_151))) (let ((.def_157 (not .def_156))) (let ((.def_158 (and .def_157 .def_147))) (let ((.def_159 (and .def_158 .def_136))) (let ((.def_160 (not .def_159))) (let ((.def_161 (not A9))) (let ((.def_162 (+ .def_54 .def_7))) (let ((.def_163 (< .def_162 (- 1)))) (let ((.def_164 (or .def_163 .def_161))) (let ((.def_165 (+ .def_100 .def_15))) (let ((.def_166 (< .def_165 1))) (let ((.def_167 (not .def_166))) (let ((.def_168 (and .def_167 A6))) (let ((.def_169 (not .def_168))) (let ((.def_170 (or .def_169 .def_164))) (let ((.def_171 (not .def_170))) (let ((.def_172 (+ .def_78 .def_15))) (let ((.def_173 (< .def_172 1))) (let ((.def_174 (not .def_173))) (let ((.def_175 (or .def_148 .def_174))) (let ((.def_176 (not .def_175))) (let ((.def_177 (or .def_0 .def_2))) (let ((.def_178 (not .def_177))) (let ((.def_179 (or .def_178 .def_176))) (let ((.def_180 (not .def_179))) (let ((.def_181 (and .def_180 .def_171))) (let ((.def_182 (and .def_70 .def_0))) (let ((.def_183 (< .def_15 (- 1)))) (let ((.def_184 (not .def_183))) (let ((.def_185 (and .def_184 A8))) (let ((.def_186 (not .def_185))) (let ((.def_187 (or .def_186 .def_182))) (let ((.def_188 (not .def_187))) (let ((.def_189 (+ .def_15 .def_74))) (let ((.def_190 (< .def_189 1))) (let ((.def_191 (not .def_190))) (let ((.def_192 (or .def_191 .def_45))) (let ((.def_193 (+ .def_27 .def_54))) (let ((.def_194 (< .def_193 (- 1)))) (let ((.def_195 (not .def_194))) (let ((.def_196 (or A5 .def_195))) (let ((.def_197 (not .def_196))) (let ((.def_198 (or .def_197 .def_192))) (let ((.def_199 (and .def_198 .def_188))) (let ((.def_200 (or .def_199 .def_181))) (let ((.def_201 (not .def_200))) (let ((.def_202 (or .def_201 .def_160))) (let ((.def_203 (not .def_202))) (let ((.def_204 (or .def_203 .def_110))) (let ((.def_205 (or .def_0 .def_45))) (let ((.def_206 (not .def_205))) (let ((.def_207 (and .def_127 .def_19))) (let ((.def_208 (not .def_207))) (let ((.def_209 (or .def_208 .def_206))) (let ((.def_210 (< .def_8 1))) (let ((.def_211 (or .def_0 .def_210))) (let ((.def_212 (not .def_211))) (let ((.def_213 (not A1))) (let ((.def_214 (or .def_213 .def_70))) (let ((.def_215 (not .def_214))) (let ((.def_216 (or .def_215 .def_212))) (let ((.def_217 (or .def_216 .def_209))) (let ((.def_218 (+ .def_27 .def_93))) (let ((.def_219 (< .def_218 (- 1)))) (let ((.def_220 (not .def_219))) (let ((.def_221 (and .def_220 .def_148))) (let ((.def_222 (+ .def_100 .def_27))) (let ((.def_223 (< .def_222 1))) (let ((.def_224 (and .def_223 A4))) (let ((.def_225 (and .def_224 .def_221))) (let ((.def_226 (< .def_78 (- 1)))) (let ((.def_227 (or .def_226 .def_71))) (let ((.def_228 (not .def_227))) (let ((.def_229 (= .def_148 .def_213))) (let ((.def_230 (and .def_229 .def_228))) (let ((.def_231 (= .def_230 .def_225))) (let ((.def_232 (and .def_231 .def_217))) (let ((.def_233 (or A2 .def_161))) (let ((.def_234 (not .def_233))) (let ((.def_235 (+ .def_78 .def_27))) (let ((.def_236 (< .def_235 (- 1)))) (let ((.def_237 (< .def_63 (- 1)))) (let ((.def_238 (not .def_237))) (let ((.def_239 (= .def_238 .def_236))) (let ((.def_240 (and .def_239 .def_234))) (let ((.def_241 (not .def_240))) (let ((.def_242 (< .def_54 1))) (let ((.def_243 (or .def_102 .def_242))) (let ((.def_244 (< .def_32 1))) (let ((.def_245 (not .def_244))) (let ((.def_246 (or A0 .def_245))) (let ((.def_247 (or .def_246 .def_243))) (let ((.def_248 (not .def_247))) (let ((.def_249 (= .def_248 .def_241))) (let ((.def_250 (or .def_161 .def_19))) (let ((.def_251 (or A5 .def_148))) (let ((.def_252 (and .def_251 .def_250))) (let ((.def_253 (not .def_252))) (let ((.def_254 (< .def_58 (- 1)))) (let ((.def_255 (not .def_254))) (let ((.def_256 (< .def_62 (- 1)))) (let ((.def_257 (and .def_256 .def_255))) (let ((.def_258 (not .def_257))) (let ((.def_259 (not .def_143))) (let ((.def_260 (or A4 .def_259))) (let ((.def_261 (= .def_260 .def_258))) (let ((.def_262 (not .def_261))) (let ((.def_263 (and .def_262 .def_253))) (let ((.def_264 (not .def_263))) (let ((.def_265 (and .def_264 .def_249))) (let ((.def_266 (or .def_265 .def_232))) (let ((.def_267 (not .def_266))) (let ((.def_268 (+ .def_32 .def_100))) (let ((.def_269 (< .def_268 1))) (let ((.def_270 (and A7 .def_269))) (let ((.def_271 (* 1 x4))) (let ((.def_272 (+ .def_16 .def_271))) (let ((.def_273 (< .def_272 (- 1)))) (let ((.def_274 (and .def_70 .def_273))) (let ((.def_275 (and .def_274 .def_270))) (let ((.def_276 (and .def_126 A0))) (let ((.def_277 (< .def_8 (- 1)))) (let ((.def_278 (not .def_277))) (let ((.def_279 (or A7 .def_278))) (let ((.def_280 (not .def_279))) (let ((.def_281 (or .def_280 .def_276))) (let ((.def_282 (or .def_281 .def_275))) (let ((.def_283 (not .def_282))) (let ((.def_284 (< .def_113 (- 1)))) (let ((.def_285 (not .def_284))) (let ((.def_286 (and .def_19 .def_285))) (let ((.def_287 (not .def_286))) (let ((.def_288 (and A8 .def_149))) (let ((.def_289 (not .def_288))) (let ((.def_290 (or .def_289 .def_287))) (let ((.def_291 (not .def_290))) (let ((.def_292 (not A8))) (let ((.def_293 (< .def_44 (- 1)))) (let ((.def_294 (not .def_293))) (let ((.def_295 (and .def_294 .def_292))) (let ((.def_296 (not .def_295))) (let ((.def_297 (and A4 .def_40))) (let ((.def_298 (= .def_297 .def_296))) (let ((.def_299 (or .def_298 .def_291))) (let ((.def_300 (not .def_299))) (let ((.def_301 (= .def_300 .def_283))) (let ((.def_302 (and A5 .def_148))) (let ((.def_303 (+ .def_74 .def_271))) (let ((.def_304 (< .def_303 1))) (let ((.def_305 (not .def_304))) (let ((.def_306 (or .def_19 .def_305))) (let ((.def_307 (or .def_306 .def_302))) (let ((.def_308 (or .def_102 .def_213))) (let ((.def_309 (not .def_308))) (let ((.def_310 (or A0 A1))) (let ((.def_311 (not .def_310))) (let ((.def_312 (or .def_311 .def_309))) (let ((.def_313 (and .def_312 .def_307))) (let ((.def_314 (not .def_313))) (let ((.def_315 (and .def_294 .def_148))) (let ((.def_316 (not .def_315))) (let ((.def_317 (or .def_126 .def_226))) (let ((.def_318 (not .def_317))) (let ((.def_319 (or .def_318 .def_316))) (let ((.def_320 (not .def_319))) (let ((.def_321 (+ .def_33 .def_113))) (let ((.def_322 (< .def_321 1))) (let ((.def_323 (or A4 .def_322))) (let ((.def_324 (+ .def_30 .def_33))) (let ((.def_325 (< .def_324 (- 1)))) (let ((.def_326 (and .def_111 .def_325))) (let ((.def_327 (and .def_326 .def_323))) (let ((.def_328 (and .def_327 .def_320))) (let ((.def_329 (not .def_328))) (let ((.def_330 (and .def_329 .def_314))) (let ((.def_331 (and .def_330 .def_301))) (let ((.def_332 (not .def_331))) (let ((.def_333 (and .def_332 .def_267))) (let ((.def_334 (or .def_333 .def_204))) (let ((.def_335 (not .def_334))) (let ((.def_336 (<= x9 1))) (let ((.def_337 (<= 0 x9))) (let ((.def_338 (<= x8 1))) (let ((.def_339 (<= 0 x8))) (let ((.def_340 (<= x7 1))) (let ((.def_341 (<= 0 x7))) (let ((.def_342 (<= x6 1))) (let ((.def_343 (<= 0 x6))) (let ((.def_344 (<= x5 1))) (let ((.def_345 (<= 0 x5))) (let ((.def_346 (<= x4 1))) (let ((.def_347 (<= 0 x4))) (let ((.def_348 (<= x3 1))) (let ((.def_349 (<= 0 x3))) (let ((.def_350 (<= x2 1))) (let ((.def_351 (<= 0 x2))) (let ((.def_352 (<= x1 1))) (let ((.def_353 (<= 0 x1))) (let ((.def_354 (<= x0 1))) (let ((.def_355 (<= 0 x0))) (let ((.def_356 (and .def_355 .def_354 .def_353 .def_352 .def_351 .def_350 .def_349 .def_348 .def_347 .def_346 .def_345 .def_344 .def_343 .def_342 .def_341 .def_340 .def_339 .def_338 .def_337 .def_336 .def_335))) .def_356))))))))))))))))))))))))))))))))))))))))))))))))))))))))))))))))))))))))))))))))))))))))))))))))))))))))))))))))))))))))))))))))))))))))))))))))))))))))))))))))))))))))))))))))))))))))))))))))))))))))))))))))))))))))))))))))))))))))))))))))))))))))))))))))))))))))))))))))))))))))))))))))))))))))))))))))))))))))))))))))))))))))))))))))))))))))))))))))))))))
(check-sat)
